100
1000
379
379
367
366
363
358
358
355
352
345
343
337
335
329
329
325
324
320
317
317
311
303
296
294
292
288
280
277
268
268
267
264
261
259
256
255
254
247
247
244
236
235
234
231
230
228
224
217
216
212
208
207
207
204
191
190
189
186
182
180
173
173
164
159
157
154
152
150
141
138
136
130
119
116
105
103
100
98
88
87
86
86
85
65
63
63
60
57
57
57
53
52
50
29
25
24
24
23
22
22
